NAME          
ROWS
 N  OBJ
 L  c1
 L  c2
 L  c3
 L  c4
COLUMNS
    MARKER    'MARKER'                 'INTORG'
    x[1]      c1        989
    x[1]      c2        146
    x[1]      c3        328
    x[1]      c4        458
    x[1]      OBJ       -506
    x[2]      c1        370
    x[2]      c2        41
    x[2]      c3        851
    x[2]      c4        833
    x[2]      OBJ       -365
    x[3]      c1        795
    x[3]      c2        933
    x[3]      c3        746
    x[3]      c4        24
    x[3]      OBJ       -400
    x[4]      c1        819
    x[4]      c2        759
    x[4]      c3        792
    x[4]      c4        688
    x[4]      OBJ       -605
    x[5]      c1        939
    x[5]      c2        720
    x[5]      c3        881
    x[5]      c4        235
    x[5]      OBJ       -21
    x[6]      c1        990
    x[6]      c2        653
    x[6]      c3        235
    x[6]      c4        793
    x[6]      OBJ       -281
    x[7]      c1        73
    x[7]      c2        871
    x[7]      c3        687
    x[7]      c4        666
    x[7]      OBJ       -81
    x[8]      c1        172
    x[8]      c2        579
    x[8]      c3        564
    x[8]      c4        940
    x[8]      OBJ       -81
    x[9]      c1        193
    x[9]      c2        992
    x[9]      c3        455
    x[9]      c4        767
    x[9]      OBJ       -941
    x[10]     c1        124
    x[10]     c2        107
    x[10]     c3        333
    x[10]     c4        163
    x[10]     OBJ       -665
    x[11]     c1        911
    x[11]     c2        416
    x[11]     c3        423
    x[11]     c4        727
    x[11]     OBJ       -196
    x[12]     c1        59
    x[12]     c2        928
    x[12]     c3        620
    x[12]     c4        706
    x[12]     OBJ       -979
    x[13]     c1        603
    x[13]     c2        286
    x[13]     c3        376
    x[13]     c4        52
    x[13]     OBJ       -255
    x[14]     c1        388
    x[14]     c2        250
    x[14]     c3        979
    x[14]     c4        899
    x[14]     OBJ       -435
    x[15]     c1        343
    x[15]     c2        590
    x[15]     c3        238
    x[15]     c4        541
    x[15]     OBJ       -599
    x[16]     c1        987
    x[16]     c2        808
    x[16]     c3        109
    x[16]     c4        654
    x[16]     OBJ       -81
    x[17]     c1        467
    x[17]     c2        311
    x[17]     c3        17
    x[17]     c4        272
    x[17]     OBJ       -930
    x[18]     c1        939
    x[18]     c2        575
    x[18]     c3        412
    x[18]     c4        858
    x[18]     OBJ       -686
    x[19]     c1        548
    x[19]     c2        925
    x[19]     c3        888
    x[19]     c4        687
    x[19]     OBJ       -50
    x[20]     c1        846
    x[20]     c2        303
    x[20]     c3        46
    x[20]     c4        510
    x[20]     OBJ       -261
    x[21]     c1        32
    x[21]     c2        620
    x[21]     c3        60
    x[21]     c4        416
    x[21]     OBJ       -737
    x[22]     c1        470
    x[22]     c2        575
    x[22]     c3        863
    x[22]     c4        747
    x[22]     OBJ       -851
    x[23]     c1        431
    x[23]     c2        243
    x[23]     c3        15
    x[23]     c4        471
    x[23]     OBJ       -812
    x[24]     c1        256
    x[24]     c2        880
    x[24]     c3        989
    x[24]     c4        816
    x[24]     OBJ       -927
    x[25]     c1        200
    x[25]     c2        795
    x[25]     c3        422
    x[25]     c4        574
    x[25]     OBJ       -463
    x[26]     c1        795
    x[26]     c2        811
    x[26]     c3        297
    x[26]     c4        433
    x[26]     OBJ       -964
    x[27]     c1        612
    x[27]     c2        132
    x[27]     c3        143
    x[27]     c4        736
    x[27]     OBJ       -325
    x[28]     c1        737
    x[28]     c2        567
    x[28]     c3        543
    x[28]     c4        151
    x[28]     OBJ       -461
    x[29]     c1        245
    x[29]     c2        278
    x[29]     c3        768
    x[29]     c4        813
    x[29]     OBJ       -770
    x[30]     c1        222
    x[30]     c2        2
    x[30]     c3        299
    x[30]     c4        716
    x[30]     OBJ       -637
    x[31]     c1        311
    x[31]     c2        163
    x[31]     c3        10
    x[31]     c4        138
    x[31]     OBJ       -142
    x[32]     c1        748
    x[32]     c2        898
    x[32]     c3        10
    x[32]     c4        710
    x[32]     OBJ       -216
    x[33]     c1        85
    x[33]     c2        251
    x[33]     c3        921
    x[33]     c4        529
    x[33]     OBJ       -660
    x[34]     c1        223
    x[34]     c2        190
    x[34]     c3        394
    x[34]     c4        698
    x[34]     OBJ       -985
    x[35]     c1        54
    x[35]     c2        629
    x[35]     c3        400
    x[35]     c4        613
    x[35]     OBJ       -404
    x[36]     c1        681
    x[36]     c2        765
    x[36]     c3        164
    x[36]     c4        343
    x[36]     OBJ       -152
    x[37]     c1        344
    x[37]     c2        203
    x[37]     c3        344
    x[37]     c4        276
    x[37]     OBJ       -693
    x[38]     c1        793
    x[38]     c2        522
    x[38]     c3        366
    x[38]     c4        50
    x[38]     OBJ       -364
    x[39]     c1        460
    x[39]     c2        531
    x[39]     c3        609
    x[39]     c4        677
    x[39]     OBJ       -613
    x[40]     c1        114
    x[40]     c2        455
    x[40]     c3        592
    x[40]     c4        573
    x[40]     OBJ       -918
RHS
    rhs       c1        9684
    rhs       c2        10352
    rhs       c3        9094
    rhs       c4        10976
RANGES
BOUNDS
 BV bounds    x[1]
 BV bounds    x[2]
 BV bounds    x[3]
 BV bounds    x[4]
 BV bounds    x[5]
 BV bounds    x[6]
 BV bounds    x[7]
 BV bounds    x[8]
 BV bounds    x[9]
 BV bounds    x[10]
 BV bounds    x[11]
 BV bounds    x[12]
 BV bounds    x[13]
 BV bounds    x[14]
 BV bounds    x[15]
 BV bounds    x[16]
 BV bounds    x[17]
 BV bounds    x[18]
 BV bounds    x[19]
 BV bounds    x[20]
 BV bounds    x[21]
 BV bounds    x[22]
 BV bounds    x[23]
 BV bounds    x[24]
 BV bounds    x[25]
 BV bounds    x[26]
 BV bounds    x[27]
 BV bounds    x[28]
 BV bounds    x[29]
 BV bounds    x[30]
 BV bounds    x[31]
 BV bounds    x[32]
 BV bounds    x[33]
 BV bounds    x[34]
 BV bounds    x[35]
 BV bounds    x[36]
 BV bounds    x[37]
 BV bounds    x[38]
 BV bounds    x[39]
 BV bounds    x[40]
ENDATA
